Cn BCC                                  
   1.00000000000000     
     3.2421028035446620    0.0000000000000000    0.0000000000000000
    -1.0806891996209647    3.0566879858257088    0.0000000000000000
    -1.0806891996209647   -1.5283190995840192    2.6471838191490185
   Cn
     1
Direct
  0.0000000000000000  0.0000000000000000  0.0000000000000000
 
  0.00000000E+00  0.00000000E+00  0.00000000E+00
