Ne_FCC                                  
   1.00000000000000     
     2.7670394758641463    0.0000000000000000    0.0000000000000000
     1.3835197379320732    2.3963264793379468    0.0000000000000000
     1.3835197379320732    0.7987754931126434    2.2592782714050648
   Ne
     1
Direct
  0.0000000000000000  0.0000000000000000  0.0000000000000000
 
  0.00000000E+00  0.00000000E+00  0.00000000E+00
