Ne_FCC                                  
   1.00000000000000     
     2.9738030722064028    0.0000000000000000    0.0000000000000000
     1.4869015361032014    2.5753890063456000    0.0000000000000000
     1.4869015361032014    0.8584630021151920    2.4281000408840865
   Ne
     1
Direct
  0.0000000000000000  0.0000000000000000  0.0000000000000000
 
  0.00000000E+00  0.00000000E+00  0.00000000E+00
