Og_FCC                                  
   0.98000000000000     
     4.3477801404162912    0.0000000000000000    0.0000000000000001
     2.1738900702081456    3.7652880516153613   -0.0000000000000001
     2.1738900702081456    1.2550960172051178    3.5499476193852830
   Og
     1
Direct
  0.0000000000000000  0.0000000000000000  0.0000000000000000
 
  0.00000000E+00  0.00000000E+00  0.00000000E+00
