Rn_FCC                                  
   0.97655400000000     
     4.5205647692472795    0.0000000000000000    0.0000000000000001
     2.2602823846236397    3.9149239295642890   -0.0000000000000001
     2.2602823846236397    1.3049746431880884    3.6910256780670272
   Rn
     1
Direct
  0.0000000000000000  0.0000000000000000  0.0000000000000000
 
  0.00000000E+00  0.00000000E+00  0.00000000E+00
