Fl HCP                                  
   1.00000000000000     
     3.8083981857351099   -0.0036962769042417   -0.0036030764410017
    -1.9075262541436431    3.3369041365267851   -0.0059436234639633
    -0.0060107489711466   -0.0128019559356442    6.0318160730500257
   Fl
     2
Direct
  0.1662864404118357  0.3329601347590193  0.2498961262256349
  0.8337135895881436  0.6670398352409780  0.7501038737743312
 
  0.00000000E+00  0.00000000E+00  0.00000000E+00
  0.00000000E+00  0.00000000E+00  0.00000000E+00
