Og_FCC                                  
   1.00000000000000     
     4.7342275686077997    0.0000000000000000    0.0000000000000001
     2.3671137843038998    4.0999613416515146   -0.0000000000000001
     2.3671137843038998    1.3666537805505039    3.8654806232217349
   Og
     1
Direct
  0.0000000000000000  0.0000000000000000  0.0000000000000000
 
  0.00000000E+00  0.00000000E+00  0.00000000E+00
