Ne_FCC                                  
   1.00000000000000     
     2.9746031191800468    0.0000000000000000    0.0000000000000000
     1.4873015595900234    2.5760818673489867    0.0000000000000000
     1.4873015595900234    0.8586939557829875    2.4287532765026687
   Ne
     1
Direct
  0.0000000000000000  0.0000000000000000  0.0000000000000000
 
  0.00000000E+00  0.00000000E+00  0.00000000E+00
