Ne_FCC                                  
   1.00000000000000     
     2.9742075222678794    0.0000000000000000    0.0000000000000000
     1.4871037611339397    2.5757392703733961    0.0000000000000000
     1.4871037611339397    0.8585797567911240    2.4284302729764486
   Ne
     1
Direct
  0.0000000000000000  0.0000000000000000  0.0000000000000000
 
  0.00000000E+00  0.00000000E+00  0.00000000E+00
