Rn_FCC                                  
   1.00000000000000     
     4.5236861902209924    0.0000000000000000    0.0000000000000001
     2.2618430951104962    3.9176271594233896   -0.0000000000000001
     2.2618430951104962    1.3058757198077888    3.6935743076197780
   Rn
     1
Direct
  0.0000000000000000  0.0000000000000000  0.0000000000000000
 
  0.00000000E+00  0.00000000E+00  0.00000000E+00
