Rn_FCC                                  
   1.00000000000000     
     4.5233537304647413    0.0000000000000000    0.0000000000000001
     2.2616768652323707    3.9173392408287446   -0.0000000000000001
     2.2616768652323707    1.3057797469429071    3.6933028553654950
   Rn
     1
Direct
  0.0000000000000000  0.0000000000000000  0.0000000000000000
 
  0.00000000E+00  0.00000000E+00  0.00000000E+00
