Og_FCC                                  
  0.980000000000000     
     4.9449138759562103    0.0000000000000000    0.0000000000000001
     2.4724569379781052    4.2824210360421349   -0.0000000000000001
     2.4724569379781052    1.4274736786807134    4.0375052728253218
   Og
     1
Direct
  0.0000000000000000  0.0000000000000000  0.0000000000000000
 
  0.00000000E+00  0.00000000E+00  0.00000000E+00
