Cn HCP                                  
   1.00000000000000     
     3.4180341240603842   -0.0025206957830416    0.0002164735441228
    -1.7112185135408862    2.9658328547473745   -0.0005846542430653
    -0.0005194249401730    0.0011337200752058    5.5710960333393196
   Cn
     2
Direct
  0.1656073333903415  0.3325332801163001  0.2500040288231818
  0.8343926966096397  0.6674666898836832  0.7499959711768039
 
  0.00000000E+00  0.00000000E+00  0.00000000E+00
  0.00000000E+00  0.00000000E+00  0.00000000E+00
