Ar_FCC                                  
   1.0410555555555555555     
     3.5996967453344171    0.0000000000000000    0.0000000000000001
     1.7998483726672085    3.1174288273345634   -0.0000000000000001
     1.7998483726672085    1.0391429424448428    2.9391400850332281
   Ar
     1
Direct
  0.0000000000000000  0.0000000000000000  0.0000000000000000
 
  0.00000000E+00  0.00000000E+00  0.00000000E+00
