He_FCC                                  
   1.00000000000000     
     2.8451150268090317    0.0000000000000000    0.0000000000000000
     1.4225575134045159    2.4639418898696004    0.0000000000000000
     1.4225575134045159    0.8213139632898713    2.3230266918075149
   He
     1
Direct
  0.0000000000000000  0.0000000000000000  0.0000000000000000
 
  0.00000000E+00  0.00000000E+00  0.00000000E+00
