Og_FCC                                  
   1.00344000000000     
     4.3423458756976911    0.0000000000000000    0.0000000000000001
     2.1711729378488456    3.7605818403182254   -0.0000000000000001
     2.1711729378488456    1.2535272801060739    3.5455105608225481
   Og
     1
Direct
  0.0000000000000000  0.0000000000000000  0.0000000000000000
 
  0.00000000E+00  0.00000000E+00  0.00000000E+00
