k-points for bandstructure L-G-X
  8
line
reciprocal
  0.50000  0.50000  0.50000    1
  0.00000  0.00000  0.00000    1

  0.00000  0.00000  0.00000    1
  0.00000  0.50000  0.50000    1

