Kr_FCC                                  
   1.00000000000000     
     4.4322001260834218    0.0000000000000000    0.0000000000000001
     2.2161000630417109    3.8383979037891733   -0.0000000000000001
     2.2161000630417109    1.2794659679297165    3.6188762490466129
   Kr
     1
Direct
  0.0000000000000000  0.0000000000000000  0.0000000000000000
 
  0.00000000E+00  0.00000000E+00  0.00000000E+00
