Og_FCC                                  
   1.00500000000000     
     4.5061581367931964    0.0000000000000000    0.0000000000000001
     2.2530790683965982    3.9024474198762333   -0.0000000000000001
     2.2530790683965982    1.3008158066254112    3.6792627119252002
   Og
     1
Direct
  0.0000000000000000  0.0000000000000000  0.0000000000000000
 
  0.00000000E+00  0.00000000E+00  0.00000000E+00
