Cn HCP                                  
   1.00000000000000     
     3.4186851346736060   -0.0000013947764303    0.0000030289570566
    -1.7093437719336411    2.9606881465418979    0.0000007178126612
     0.0000059499326573    0.0000053102620359    5.3577142186570654
   Cn
     2
Direct
  0.1666646005932080  0.3333243376822068  0.2499981018782549
  0.8333354294067945  0.6666756323177907  0.7500018981217451
 
  0.00000000E+00  0.00000000E+00  0.00000000E+00
  0.00000000E+00  0.00000000E+00  0.00000000E+00
