Cn HCP                                  
   1.00000000000000     
     3.2141488252424009    0.0000000000000000    0.0000000000000000
    -1.6070744126751482    2.7835345342377744    0.0000000000000000
     0.0000000000000000    0.0000000000000000    6.0613395700342556
   Cn
     2
Direct
  0.1666699949999995  0.3333300050000005  0.2500000000000000
  0.8333300350000030  0.6666699649999970  0.7500000000000000
 
  0.00000000E+00  0.00000000E+00  0.00000000E+00
  0.00000000E+00  0.00000000E+00  0.00000000E+00
