Rn_FCC                                  
   1.00000000000000     
     4.5227665198846347    0.0000000000000000    0.0000000000000001
     2.2613832599423174    3.9168307015490087   -0.0000000000000001
     2.2613832599423174    1.3056102338496618    3.6928233999345381
   Rn
     1
Direct
  0.0000000000000000  0.0000000000000000  0.0000000000000000
 
  0.00000000E+00  0.00000000E+00  0.00000000E+00
