Og_FCC                                  
   1.00000000000000     
     4.3545921958360188    0.0000000000000000    0.0000000000000001
     2.1772960979180094    3.7711874646607439   -0.0000000000000001
     2.1772960979180094    1.2570624882202459    3.5555096393447516
   Og
     1
Direct
  0.0000000000000000  0.0000000000000000  0.0000000000000000
 
  0.00000000E+00  0.00000000E+00  0.00000000E+00
