Ne_FCC                                  
   1.06133154001345     
     2.9742208675795281    0.0000000000000000    0.0000000000000000
     1.4871104337897640    2.5757508277523047    0.0000000000000000
     1.4871104337897640    0.8585836092507603    2.4284411693777810
   Ne
     1
Direct
  0.0000000000000000  0.0000000000000000  0.0000000000000000
 
  0.00000000E+00  0.00000000E+00  0.00000000E+00
