Og_FCC                                  
   0.98000000000000     
     4.3542289605658704    0.0000000000000000    0.0000000000000001
     2.1771144802829352    3.7708728936892495   -0.0000000000000001
     2.1771144802829352    1.2569576312297477    3.5552130589885937
   Og
     1
Direct
  0.0000000000000000  0.0000000000000000  0.0000000000000000
 
  0.00000000E+00  0.00000000E+00  0.00000000E+00
