Og_FCC                                  
   1.00000000000000     
     4.2608245376079656    0.0000000000000000    0.0000000000000001
     2.1304122688039828    3.7652880516153613   -0.0000000000000001
     2.1304122688039828    1.2550960172051178    3.5499476193852830
   Og
     1
Direct
  0.0000000000000000  0.0000000000000000  0.0000000000000000
 
  0.00000000E+00  0.00000000E+00  0.00000000E+00
