Kr_FCC                                  
   1.00000000000000     
     4.4601755934632132    0.0000000000000000    0.0000000000000001
     2.2300877967316066    3.8626253692224735   -0.0000000000000001
     2.2300877967316066    1.2875417897408146    3.6417181225127888
   Kr
     1
Direct
  0.0000000000000000  0.0000000000000000  0.0000000000000000
 
  0.00000000E+00  0.00000000E+00  0.00000000E+00
