Og_FCC                                  
   1.00000000000000     
     4.3995301658834638    0.0000000000000000    0.0000000000000001
     2.1997650829417319    3.8101048883157684   -0.0000000000000001
     2.1997650829417319    1.2700349627719223    3.5922013382434579
   Og
     1
Direct
  0.0000000000000000  0.0000000000000000  0.0000000000000000
 
  0.00000000E+00  0.00000000E+00  0.00000000E+00
