Automatically generated mesh + R-points for bandstructure L-G-X
     256
Reciprocal lattice
0.500000000	0.500000000	0.500000000	0
0.475000000	0.475000000	0.475000000	0
0.450000000	0.450000000	0.450000000	0
0.425000000	0.425000000	0.425000000	0
0.400000000	0.400000000	0.400000000	0
0.375000000	0.375000000	0.375000000	0
0.350000000	0.350000000	0.350000000	0
0.325000000	0.325000000	0.325000000	0
0.300000000	0.300000000	0.300000000	0
0.275000000	0.275000000	0.275000000	0
0.250000000	0.250000000	0.250000000	0
0.225000000	0.225000000	0.225000000	0
0.200000000	0.200000000	0.200000000	0
0.175000000	0.175000000	0.175000000	0
0.150000000	0.150000000	0.150000000	0
0.125000000	0.125000000	0.125000000	0
0.100000000	0.100000000	0.100000000	0
0.075000000	0.075000000	0.075000000	0
0.050000000	0.050000000	0.050000000	0
0.025000000	0.025000000	0.025000000	0
0.000000000	0.000000000	0.000000000	0
0.000000000	0.025000000	0.025000000	0
0.000000000	0.050000000	0.050000000	0
0.000000000	0.075000000	0.075000000	0
0.000000000	0.100000000	0.100000000	0
0.000000000	0.125000000	0.125000000	0
0.000000000	0.150000000	0.150000000	0
0.000000000	0.175000000	0.175000000	0
0.000000000	0.200000000	0.200000000	0
0.000000000	0.225000000	0.225000000	0
0.000000000	0.250000000	0.250000000	0
0.000000000	0.275000000	0.275000000	0
0.000000000	0.300000000	0.300000000	0
0.000000000	0.325000000	0.325000000	0
0.000000000	0.350000000	0.350000000	0
0.000000000	0.375000000	0.375000000	0
0.000000000	0.400000000	0.400000000	0
0.000000000	0.425000000	0.425000000	0
0.000000000	0.450000000	0.450000000	0
0.000000000	0.475000000	0.475000000	0
0.000000000	0.500000000	0.500000000	0
    0.00000000000000    0.00000000000000    0.00000000000000             1
    0.16666666666667    0.00000000000000    0.00000000000000             1
    0.33333333333333    0.00000000000000    0.00000000000000             1
    0.50000000000000    0.00000000000000    0.00000000000000             1
   -0.33333333333333   -0.00000000000000    0.00000000000000             1
   -0.16666666666667   -0.00000000000000   -0.00000000000000             1
   -0.00000000000000    0.16666666666667   -0.00000000000000             1
    0.16666666666667    0.16666666666667    0.00000000000000             1
    0.33333333333333    0.16666666666667   -0.00000000000000             1
    0.50000000000000    0.16666666666667    0.00000000000000             1
   -0.33333333333333    0.16666666666667   -0.00000000000000             1
   -0.16666666666667    0.16666666666667   -0.00000000000000             1
    0.00000000000000    0.33333333333333   -0.00000000000000             1
    0.16666666666667    0.33333333333333    0.00000000000000             1
    0.33333333333333    0.33333333333333    0.00000000000000             1
    0.50000000000000    0.33333333333333    0.00000000000000             1
   -0.33333333333333    0.33333333333333   -0.00000000000000             1
   -0.16666666666667    0.33333333333333   -0.00000000000000             1
    0.00000000000000    0.50000000000000   -0.00000000000000             1
    0.16666666666667    0.50000000000000    0.00000000000000             1
    0.33333333333333    0.50000000000000    0.00000000000000             1
    0.50000000000000    0.50000000000000    0.00000000000000             1
   -0.33333333333333    0.50000000000000   -0.00000000000000             1
   -0.16666666666667    0.50000000000000   -0.00000000000000             1
   -0.00000000000000   -0.33333333333333    0.00000000000000             1
    0.16666666666667   -0.33333333333333    0.00000000000000             1
    0.33333333333333   -0.33333333333333    0.00000000000000             1
    0.50000000000000   -0.33333333333333    0.00000000000000             1
   -0.33333333333333   -0.33333333333333   -0.00000000000000             1
   -0.16666666666667   -0.33333333333333    0.00000000000000             1
    0.00000000000000   -0.16666666666667    0.00000000000000             1
    0.16666666666667   -0.16666666666667    0.00000000000000             1
    0.33333333333333   -0.16666666666667    0.00000000000000             1
    0.50000000000000   -0.16666666666667    0.00000000000000             1
   -0.33333333333333   -0.16666666666667    0.00000000000000             1
   -0.16666666666667   -0.16666666666667    0.00000000000000             1
    0.00000000000000    0.00000000000000    0.16666666666667             1
    0.16666666666667    0.00000000000000    0.16666666666667             1
    0.33333333333333   -0.00000000000000    0.16666666666667             1
    0.50000000000000   -0.00000000000000    0.16666666666667             1
   -0.33333333333333   -0.00000000000000    0.16666666666667             1
   -0.16666666666667    0.00000000000000    0.16666666666667             1
   -0.00000000000000    0.16666666666667    0.16666666666667             1
    0.16666666666667    0.16666666666667    0.16666666666667             1
    0.33333333333333    0.16666666666667    0.16666666666667             1
    0.50000000000000    0.16666666666667    0.16666666666667             1
   -0.33333333333333    0.16666666666667    0.16666666666667             1
   -0.16666666666667    0.16666666666667    0.16666666666667             1
   -0.00000000000000    0.33333333333333    0.16666666666667             1
    0.16666666666667    0.33333333333333    0.16666666666667             1
    0.33333333333333    0.33333333333333    0.16666666666667             1
    0.50000000000000    0.33333333333333    0.16666666666667             1
   -0.33333333333333    0.33333333333333    0.16666666666667             1
   -0.16666666666667    0.33333333333333    0.16666666666667             1
   -0.00000000000000    0.50000000000000    0.16666666666667             1
    0.16666666666667    0.50000000000000    0.16666666666667             1
    0.33333333333333    0.50000000000000    0.16666666666667             1
    0.50000000000000    0.50000000000000    0.16666666666667             1
   -0.33333333333333    0.50000000000000    0.16666666666667             1
   -0.16666666666667    0.50000000000000    0.16666666666667             1
   -0.00000000000000   -0.33333333333333    0.16666666666667             1
    0.16666666666667   -0.33333333333333    0.16666666666667             1
    0.33333333333333   -0.33333333333333    0.16666666666667             1
    0.50000000000000   -0.33333333333333    0.16666666666667             1
   -0.33333333333333   -0.33333333333333    0.16666666666667             1
   -0.16666666666667   -0.33333333333333    0.16666666666667             1
    0.00000000000000   -0.16666666666667    0.16666666666667             1
    0.16666666666667   -0.16666666666667    0.16666666666667             1
    0.33333333333333   -0.16666666666667    0.16666666666667             1
    0.50000000000000   -0.16666666666667    0.16666666666667             1
   -0.33333333333333   -0.16666666666667    0.16666666666667             1
   -0.16666666666667   -0.16666666666667    0.16666666666667             1
    0.00000000000000    0.00000000000000    0.33333333333333             1
    0.16666666666667    0.00000000000000    0.33333333333333             1
    0.33333333333333    0.00000000000000    0.33333333333333             1
    0.50000000000000   -0.00000000000000    0.33333333333333             1
   -0.33333333333333    0.00000000000000    0.33333333333333             1
   -0.16666666666667    0.00000000000000    0.33333333333333             1
   -0.00000000000000    0.16666666666667    0.33333333333333             1
    0.16666666666667    0.16666666666667    0.33333333333333             1
    0.33333333333333    0.16666666666667    0.33333333333333             1
    0.50000000000000    0.16666666666667    0.33333333333333             1
   -0.33333333333333    0.16666666666667    0.33333333333333             1
   -0.16666666666667    0.16666666666667    0.33333333333333             1
   -0.00000000000000    0.33333333333333    0.33333333333333             1
    0.16666666666667    0.33333333333333    0.33333333333333             1
    0.33333333333333    0.33333333333333    0.33333333333333             1
    0.50000000000000    0.33333333333333    0.33333333333333             1
   -0.33333333333333    0.33333333333333    0.33333333333333             1
   -0.16666666666667    0.33333333333333    0.33333333333333             1
    0.00000000000000    0.50000000000000    0.33333333333333             1
    0.16666666666667    0.50000000000000    0.33333333333333             1
    0.33333333333333    0.50000000000000    0.33333333333333             1
    0.50000000000000    0.50000000000000    0.33333333333333             1
   -0.33333333333333    0.50000000000000    0.33333333333333             1
   -0.16666666666667    0.50000000000000    0.33333333333333             1
    0.00000000000000   -0.33333333333333    0.33333333333333             1
    0.16666666666667   -0.33333333333333    0.33333333333333             1
    0.33333333333333   -0.33333333333333    0.33333333333333             1
    0.50000000000000   -0.33333333333333    0.33333333333333             1
   -0.33333333333333   -0.33333333333333    0.33333333333333             1
   -0.16666666666667   -0.33333333333333    0.33333333333333             1
    0.00000000000000   -0.16666666666667    0.33333333333333             1
    0.16666666666667   -0.16666666666667    0.33333333333333             1
    0.33333333333333   -0.16666666666667    0.33333333333333             1
    0.50000000000000   -0.16666666666667    0.33333333333333             1
   -0.33333333333333   -0.16666666666667    0.33333333333333             1
   -0.16666666666667   -0.16666666666667    0.33333333333333             1
    0.00000000000000    0.00000000000000    0.50000000000000             1
    0.16666666666667    0.00000000000000    0.50000000000000             1
    0.33333333333333    0.00000000000000    0.50000000000000             1
    0.50000000000000   -0.00000000000000    0.50000000000000             1
   -0.33333333333333    0.00000000000000    0.50000000000000             1
   -0.16666666666667    0.00000000000000    0.50000000000000             1
   -0.00000000000000    0.16666666666667    0.50000000000000             1
    0.16666666666667    0.16666666666667    0.50000000000000             1
    0.33333333333333    0.16666666666667    0.50000000000000             1
    0.50000000000000    0.16666666666667    0.50000000000000             1
   -0.33333333333333    0.16666666666667    0.50000000000000             1
   -0.16666666666667    0.16666666666667    0.50000000000000             1
    0.00000000000000    0.33333333333333    0.50000000000000             1
    0.16666666666667    0.33333333333333    0.50000000000000             1
    0.33333333333333    0.33333333333333    0.50000000000000             1
    0.50000000000000    0.33333333333333    0.50000000000000             1
   -0.33333333333333    0.33333333333333    0.50000000000000             1
   -0.16666666666667    0.33333333333333    0.50000000000000             1
   -0.00000000000000    0.50000000000000    0.50000000000000             1
    0.16666666666667    0.50000000000000    0.50000000000000             1
    0.33333333333333    0.50000000000000    0.50000000000000             1
    0.50000000000000    0.50000000000000    0.50000000000000             1
   -0.33333333333333    0.50000000000000    0.50000000000000             1
   -0.16666666666667    0.50000000000000    0.50000000000000             1
    0.00000000000000   -0.33333333333333    0.50000000000000             1
    0.16666666666667   -0.33333333333333    0.50000000000000             1
    0.33333333333333   -0.33333333333333    0.50000000000000             1
    0.50000000000000   -0.33333333333333    0.50000000000000             1
   -0.33333333333333   -0.33333333333333    0.50000000000000             1
   -0.16666666666667   -0.33333333333333    0.50000000000000             1
    0.00000000000000   -0.16666666666667    0.50000000000000             1
    0.16666666666667   -0.16666666666667    0.50000000000000             1
    0.33333333333333   -0.16666666666667    0.50000000000000             1
    0.50000000000000   -0.16666666666667    0.50000000000000             1
   -0.33333333333333   -0.16666666666667    0.50000000000000             1
   -0.16666666666667   -0.16666666666667    0.50000000000000             1
    0.00000000000000    0.00000000000000   -0.33333333333333             1
    0.16666666666667   -0.00000000000000   -0.33333333333333             1
    0.33333333333333   -0.00000000000000   -0.33333333333333             1
    0.50000000000000    0.00000000000000   -0.33333333333333             1
   -0.33333333333333   -0.00000000000000   -0.33333333333333             1
   -0.16666666666667   -0.00000000000000   -0.33333333333333             1
   -0.00000000000000    0.16666666666667   -0.33333333333333             1
    0.16666666666667    0.16666666666667   -0.33333333333333             1
    0.33333333333333    0.16666666666667   -0.33333333333333             1
    0.50000000000000    0.16666666666667   -0.33333333333333             1
   -0.33333333333333    0.16666666666667   -0.33333333333333             1
   -0.16666666666667    0.16666666666667   -0.33333333333333             1
    0.00000000000000    0.33333333333333   -0.33333333333333             1
    0.16666666666667    0.33333333333333   -0.33333333333333             1
    0.33333333333333    0.33333333333333   -0.33333333333333             1
    0.50000000000000    0.33333333333333   -0.33333333333333             1
   -0.33333333333333    0.33333333333333   -0.33333333333333             1
   -0.16666666666667    0.33333333333333   -0.33333333333333             1
   -0.00000000000000    0.50000000000000   -0.33333333333333             1
    0.16666666666667    0.50000000000000   -0.33333333333333             1
    0.33333333333333    0.50000000000000   -0.33333333333333             1
    0.50000000000000    0.50000000000000   -0.33333333333333             1
   -0.33333333333333    0.50000000000000   -0.33333333333333             1
   -0.16666666666667    0.50000000000000   -0.33333333333333             1
    0.00000000000000   -0.33333333333333   -0.33333333333333             1
    0.16666666666667   -0.33333333333333   -0.33333333333333             1
    0.33333333333333   -0.33333333333333   -0.33333333333333             1
    0.50000000000000   -0.33333333333333   -0.33333333333333             1
   -0.33333333333333   -0.33333333333333   -0.33333333333333             1
   -0.16666666666667   -0.33333333333333   -0.33333333333333             1
    0.00000000000000   -0.16666666666667   -0.33333333333333             1
    0.16666666666667   -0.16666666666667   -0.33333333333333             1
    0.33333333333333   -0.16666666666667   -0.33333333333333             1
    0.50000000000000   -0.16666666666667   -0.33333333333333             1
   -0.33333333333333   -0.16666666666667   -0.33333333333333             1
   -0.16666666666667   -0.16666666666667   -0.33333333333333             1
   -0.00000000000000   -0.00000000000000   -0.16666666666667             1
    0.16666666666667   -0.00000000000000   -0.16666666666667             1
    0.33333333333333    0.00000000000000   -0.16666666666667             1
    0.50000000000000    0.00000000000000   -0.16666666666667             1
   -0.33333333333333    0.00000000000000   -0.16666666666667             1
   -0.16666666666667   -0.00000000000000   -0.16666666666667             1
   -0.00000000000000    0.16666666666667   -0.16666666666667             1
    0.16666666666667    0.16666666666667   -0.16666666666667             1
    0.33333333333333    0.16666666666667   -0.16666666666667             1
    0.50000000000000    0.16666666666667   -0.16666666666667             1
   -0.33333333333333    0.16666666666667   -0.16666666666667             1
   -0.16666666666667    0.16666666666667   -0.16666666666667             1
    0.00000000000000    0.33333333333333   -0.16666666666667             1
    0.16666666666667    0.33333333333333   -0.16666666666667             1
    0.33333333333333    0.33333333333333   -0.16666666666667             1
    0.50000000000000    0.33333333333333   -0.16666666666667             1
   -0.33333333333333    0.33333333333333   -0.16666666666667             1
   -0.16666666666667    0.33333333333333   -0.16666666666667             1
   -0.00000000000000    0.50000000000000   -0.16666666666667             1
    0.16666666666667    0.50000000000000   -0.16666666666667             1
    0.33333333333333    0.50000000000000   -0.16666666666667             1
    0.50000000000000    0.50000000000000   -0.16666666666667             1
   -0.33333333333333    0.50000000000000   -0.16666666666667             1
   -0.16666666666667    0.50000000000000   -0.16666666666667             1
    0.00000000000000   -0.33333333333333   -0.16666666666667             1
    0.16666666666667   -0.33333333333333   -0.16666666666667             1
    0.33333333333333   -0.33333333333333   -0.16666666666667             1
    0.50000000000000   -0.33333333333333   -0.16666666666667             1
   -0.33333333333333   -0.33333333333333   -0.16666666666667             1
   -0.16666666666667   -0.33333333333333   -0.16666666666667             1
    0.00000000000000   -0.16666666666667   -0.16666666666667             1
    0.16666666666667   -0.16666666666667   -0.16666666666667             1
    0.33333333333333   -0.16666666666667   -0.16666666666667             1
    0.50000000000000   -0.16666666666667   -0.16666666666667             1
   -0.33333333333333   -0.16666666666667   -0.16666666666667             1
   -0.16666666666667   -0.16666666666667   -0.16666666666667             1 
