Og                                      
   1.00000000000000     
     4.3455754997343838    0.0000000307767588   -0.0000000164037015
     2.1727877486509293    3.7633789836278653   -0.0000010174572894
     2.1727877653608707    1.2544587756461465    3.5481452513682217
   Og
     1
Direct
  0.0000000000000000  0.0000000000000000  0.0000000000000000
 
  0.00000000E+00  0.00000000E+00  0.00000000E+00
