Fl HCP                                  
   1.00000000000000     
     3.8257952937956010    0.0042037832649086   -0.0062057747191137
    -1.9093261802722397    3.3362726006476180   -0.0090819924941098
    -0.0103079384566950   -0.0210041358063115    6.0087664567659678
   Fl
     2
Direct
  0.1664179104194674  0.3328866918664173  0.2499213232531323
  0.8335821195805099  0.6671132781335788  0.7500786767468265
 
  0.00000000E+00  0.00000000E+00  0.00000000E+00
  0.00000000E+00  0.00000000E+00  0.00000000E+00
