Fl HCP                                  
   1.00000000000000     
     3.8672413893181816   -0.0023615796969366   -0.0071261109842017
    -1.9357489039302116    3.3896138659182835   -0.0027572114967717
    -0.0115181792666215   -0.0102048297174903    6.1521088261879013
   Fl
     2
Direct
  0.1663415513405914  0.3330089368393501  0.2499853511862501
  0.8336584786593866  0.6669910331606461  0.7500146488137200
 
  0.00000000E+00  0.00000000E+00  0.00000000E+00
  0.00000000E+00  0.00000000E+00  0.00000000E+00
