Fl HCP                                  
   1.00000000000000     
     3.8044638605819441   -0.0072008929499578   -0.0018810516610401
    -1.9086359872671144    3.3348685816906891   -0.0100719496948062
    -0.0032696174843248   -0.0186885355146485    6.0302397753795480
   Fl
     2
Direct
  0.1663176565549389  0.3329566653631168  0.2498368155500294
  0.8336823734450379  0.6670433046368827  0.7501631844499288
 
  0.00000000E+00  0.00000000E+00  0.00000000E+00
  0.00000000E+00  0.00000000E+00  0.00000000E+00
