Fl HCP                                  
   1.00000000000000     
     3.8103163807272935   -0.0031925650251432   -0.0033111882808138
    -1.9080455405064642    3.3372346956256793   -0.0056939073577779
    -0.0055525252260749   -0.0120900183781580    6.0312770916796126
   Fl
     2
Direct
  0.1662834900574927  0.3329551613917353  0.2499003762843003
  0.8337165399424885  0.6670448086082622  0.7500996237156642
 
  0.00000000E+00  0.00000000E+00  0.00000000E+00
  0.00000000E+00  0.00000000E+00  0.00000000E+00
