Fl HCP                                  
   1.00000000000000     
     3.8880428945603569   -0.0063179122020164   -0.0108187398714608
    -1.9496304983275421    3.4036868586168043   -0.0037789310877328
    -0.0173480967209151   -0.0153237515149875    6.2101768893214979
   Fl
     2
Direct
  0.1664359805597250  0.3330604159555328  0.2499420965548491
  0.8335640494402556  0.6669395540444715  0.7500579034451230
 
  0.00000000E+00  0.00000000E+00  0.00000000E+00
  0.00000000E+00  0.00000000E+00  0.00000000E+00
