Fl HCP                                  
   1.00000000000000     
     3.8162386201891705    0.0004576934250452   -0.0029609822221760
    -1.9078349806512547    3.3308323046837987   -0.0101184763891848
    -0.0051288825243756   -0.0198476776414190    6.0208098808785246
   Fl
     2
Direct
  0.1663495298041927  0.3329114892519634  0.2497870806462585
  0.8336505001957829  0.6670884807480345  0.7502129193536992
 
  0.00000000E+00  0.00000000E+00  0.00000000E+00
  0.00000000E+00  0.00000000E+00  0.00000000E+00
