Og_FCC                                  
   1.00000000000000     
     4.3928546162258542    0.0000000000000000    0.0000000000000001
     2.1964273081129271    3.8043236927281403   -0.0000000000000001
     2.1964273081129271    1.2681078975760454    3.5867507747720402
   Og
     1
Direct
  0.0000000000000000  0.0000000000000000  0.0000000000000000
 
  0.00000000E+00  0.00000000E+00  0.00000000E+00
