Og_FCC                                  
   1.00000000000000     
     4.4899746929807911    0.0000000000000000    0.0000000000000001
     2.2449873464903956    3.8884321464141953   -0.0000000000000001
     2.2449873464903956    1.2961440488047300    3.6660489853843479
   Og
     1
Direct
  0.0000000000000000  0.0000000000000000  0.0000000000000000
 
  0.00000000E+00  0.00000000E+00  0.00000000E+00
