Og_FCC                                  
   1.00500000000000     
     4.5669009928547641    0.0000000000000000    0.0000000000000001
     2.2834504964273821    3.9550522763232316   -0.0000000000000001
     2.2834504964273821    1.3183507587744072    3.7288590462168085
   Og
     1
Direct
  0.0000000000000000  0.0000000000000000  0.0000000000000000
 
  0.00000000E+00  0.00000000E+00  0.00000000E+00
