Ar_FCC                                  
   1.00000000000000     
     3.7221557593905175    0.0000000000000000    0.0000000000000001
     1.8610778796952587    3.2234814444279953   -0.0000000000000001
     1.8610778796952587    1.0744938148093202    3.0391274513169000
   Ar
     1
Direct
  0.0000000000000000  0.0000000000000000  0.0000000000000000
 
  0.00000000E+00  0.00000000E+00  0.00000000E+00
