Ar_FCC                                  
   1.00000000000000     
     3.7216905417987851    0.0000000000000000    0.0000000000000001
     1.8608452708993926    3.2230785541752733   -0.0000000000000001
     1.8608452708993926    1.0743595180584129    3.0387476027438511
   Ar
     1
Direct
  0.0000000000000000  0.0000000000000000  0.0000000000000000
 
  0.00000000E+00  0.00000000E+00  0.00000000E+00
