Kr_FCC                                  
   1.00000000000000     
     4.0505250154246273    0.0000000000000000    0.0000000000000001
     2.0252625077123136    3.5078575619711923   -0.0000000000000001
     2.0252625077123136    1.1692858539903956    3.3072398261588227
   Kr
     1
Direct
  0.0000000000000000  0.0000000000000000  0.0000000000000000
 
  0.00000000E+00  0.00000000E+00  0.00000000E+00
