Kr_FCC                                  
   0.97424058323207776427
     4.1153430126195882    0.0000000000000000    0.0000000000000001
     2.0576715063097941    3.5639915941636593   -0.0000000000000001
     2.0576715063097941    1.1879971980545481    3.3601634992527512
   Kr
     1
Direct
  0.0000000000000000  0.0000000000000000  0.0000000000000000
 
  0.00000000E+00  0.00000000E+00  0.00000000E+00
