Og_FCC                                  
  0.980000000000000     
     4.4723791619701423    0.0000000000000000    0.0000000000000001
     2.2361895809850711    3.8731939695661177   -0.0000000000000001
     2.2361895809850711    1.2910646565220365    3.6516822944740981
   Og
     1
Direct
  0.0000000000000000  0.0000000000000000  0.0000000000000000
 
  0.00000000E+00  0.00000000E+00  0.00000000E+00
